70
    1    49    48
    2    62    63
    3    10     5
    4    64    64
    5    65    65
    6    57    54
    7    47    40
    8    39    44
    9    14    16
   10    64    59
   11    36    38
   12     1     2
   13    11    11
   14     7    11
   15    55    57
   16    44    43
   17    21    24
   18    56    53
   19    55    48
   20     3     1
   21    46    48
   22    63    68
   23    63    59
   24     8     3
   25    63    65
   26    52    47
   27    46    49
   28    66    60
   29     6     8
   30    28    22
   31    10     4
   32    23    22
   33     1     4
   34    56    50
   35    18    15
   36    56    54
   37    18    23
   38    51    57
   39    59    63
   40    57    53
   41    44    42
   42    52    52
   43    58    57
   44    35    36
   45    52    50
   46    54    59
   47    12    18
   48    21    18
   49    13    10
   50    57    53
   51    29    25
   52    12     5
   53    37    38
   54    61    61
   55    44    51
   56    23    28
   57    56    58
   58    28    25
   59    38    31
   60     4     1
   61    48    45
   62    20    15
   63    22    20
   64     6     5
   65     7     8
   66    71    67
   67    18    23
   68    43    47
   69    25    31
   70    72    68
71
